1 10 30
3246
  3.5  0.08  20.5 7965.8   0.0
 0.05 4779.5  16.9
 0.04 3648.9  12.9
 0.07 6587.1  23.3
 0.04 4057.8  14.3
 0.08 7935.4  28.1
 0.07 6926.2  24.5
 0.08 7163.3  25.3
 0.05 4464.2  15.8
 0.06 5291.0  18.7
 0.03 3241.6  11.5
 1084
  764
  720
 1390
  728
 1325
  680
  913
  523
  745
  504
  523
  613
  529
 1431
  606
  605
 1134
 1220
  776
  665
 1445
 1144
 1129
  743
 1271
 1328
  945
 1170
 1126
